c Result of efficient AIG-to-CNF conversion using package CNF
p cnf 612 2230
-2 3 264 432 0
-2 -263 264 432 0
2 -432 0
2 -264 0
2 -3 263 0
-3 195 200 0
-3 4 164 200 0
-3 -4 -164 200 0
3 -200 0
3 4 -164 -195 0
3 -4 164 -195 0
4 5 -86 137 0
-4 -5 0
-4 86 0
-4 -137 0
-5 6 49 58 0
5 -58 0
5 -49 0
5 -6 0
6 7 -19 0
6 7 -43 0
6 7 -31 0
-6 -7 0
-6 19 31 43 0
-7 607 8 0
7 -607 0
7 -8 0
-8 9 15 17 18 0
8 -18 0
8 -9 0
8 -17 0
8 -15 0
-9 604 605 10 12 0
9 -604 0
9 -12 0
9 -10 0
9 -605 0
-10 596 602 603 11 0
10 -11 0
10 -603 0
10 -596 0
10 -602 0
-11 600 601 606 0
11 -600 0
11 -606 0
11 -601 0
-12 592 593 13 14 0
12 -592 0
12 -14 0
12 -13 0
12 -593 0
-13 597 598 599 0
13 -597 0
13 -599 0
13 -598 0
-14 588 589 594 595 0
14 -595 0
14 -594 0
14 -588 0
14 -589 0
-15 586 590 591 16 0
15 -16 0
15 -591 0
15 -586 0
15 -590 0
-16 584 585 0
16 -584 0
16 -585 0
-17 580 587 0
17 -580 0
17 -587 0
-18 581 582 583 0
18 -581 0
18 -583 0
18 -582 0
19 -608 27 0
19 -20 27 0
-19 -27 0
-19 608 20 0
20 609 -21 0
20 -609 -24 0
-20 -609 24 0
-20 609 21 0
21 610 -22 0
21 -610 -23 0
-21 -610 23 0
-21 610 22 0
22 -558 611 0
22 -557 -611 0
-22 558 611 0
-22 557 -611 0
23 -556 611 0
23 -555 -611 0
-23 556 611 0
-23 555 -611 0
24 610 -25 0
24 -610 -26 0
-24 -610 26 0
-24 610 25 0
25 -554 611 0
25 -553 -611 0
-25 554 611 0
-25 553 -611 0
26 -552 611 0
26 -551 -611 0
-26 552 611 0
-26 551 -611 0
27 -608 28 0
-27 608 0
-27 -28 0
28 609 -29 0
-28 -609 0
-28 29 0
29 610 -30 0
29 -548 -610 611 0
-29 610 30 0
-29 -610 -611 0
-29 548 -610 0
30 -550 611 0
30 -549 -611 0
-30 550 611 0
-30 549 -611 0
31 608 -32 0
31 -608 -39 0
-31 -608 39 0
-31 608 32 0
32 609 -33 0
32 -609 -36 0
-32 -609 36 0
-32 609 33 0
33 610 -34 0
33 -610 -35 0
-33 -610 35 0
-33 610 34 0
34 -559 611 0
34 -558 -611 0
-34 559 611 0
-34 558 -611 0
35 -557 611 0
35 -556 -611 0
-35 557 611 0
-35 556 -611 0
36 610 -37 0
36 -610 -38 0
-36 -610 38 0
-36 610 37 0
37 -555 611 0
37 -554 -611 0
-37 555 611 0
-37 554 -611 0
38 -553 611 0
38 -552 -611 0
-38 553 611 0
-38 552 -611 0
39 609 -40 0
-39 -609 0
-39 40 0
40 610 -41 0
40 -610 -42 0
-40 -610 42 0
-40 610 41 0
41 -551 611 0
41 -550 -611 0
-41 551 611 0
-41 550 -611 0
42 -549 611 0
42 -548 -611 0
-42 549 611 0
-42 548 -611 0
43 608 -44 0
43 -608 -47 0
-43 -608 47 0
-43 608 44 0
44 609 -45 0
44 -609 -46 0
-44 -609 46 0
-44 609 45 0
45 610 -35 0
45 -610 -37 0
-45 -610 37 0
-45 610 35 0
46 610 -38 0
46 -610 -41 0
-46 -610 41 0
-46 610 38 0
47 609 -48 0
-47 -609 0
-47 48 0
48 -548 610 -611 0
48 -549 610 611 0
-48 -610 0
-48 548 -611 0
-48 549 611 0
49 7 -50 0
-49 -7 0
-49 50 0
-50 -608 57 0
-50 608 51 54 0
50 608 -51 0
50 -608 -57 0
50 608 -54 0
51 609 -52 0
51 -609 -53 0
-51 -609 53 0
-51 609 52 0
52 610 -23 0
52 -610 -25 0
-52 -610 25 0
-52 610 23 0
53 610 -26 0
53 -610 -30 0
-53 -610 30 0
-53 610 26 0
-54 55 56 0
54 -55 0
54 -56 0
55 609 -24 0
55 -609 -29 0
-55 -609 29 0
-55 609 24 0
56 609 -36 0
56 -609 -40 0
-56 -609 40 0
-56 609 36 0
57 -548 609 610 611 0
-57 -611 0
-57 -610 0
-57 548 0
-57 -609 0
-58 59 70 80 0
58 -59 0
58 -80 0
58 -70 0
59 7 -60 0
59 7 -65 0
-59 -7 0
-59 60 65 0
60 -608 -55 0
60 608 -61 0
-60 608 61 0
-60 -608 55 0
61 -609 -21 0
61 609 -62 0
-61 609 62 0
-61 -609 21 0
62 610 -63 0
62 -610 -64 0
-62 -610 64 0
-62 610 63 0
63 -562 611 0
63 -561 -611 0
-63 562 611 0
-63 561 -611 0
64 -560 611 0
64 -559 -611 0
-64 560 611 0
-64 559 -611 0
65 -608 -56 0
65 608 -66 0
-65 608 66 0
-65 -608 56 0
66 -609 -33 0
66 609 -67 0
-66 609 67 0
-66 -609 33 0
67 610 -68 0
67 -610 -69 0
-67 -610 69 0
-67 610 68 0
68 -563 611 0
68 -562 -611 0
-68 563 611 0
-68 562 -611 0
69 -561 611 0
69 -560 -611 0
-69 561 611 0
-69 560 -611 0
70 7 -71 0
70 7 -76 0
-70 -7 0
-70 71 76 0
71 608 -72 0
71 -608 -74 0
-71 -608 74 0
-71 608 72 0
72 -609 -52 0
72 609 -73 0
-72 609 73 0
-72 -609 52 0
73 -610 -22 0
73 610 -64 0
-73 610 64 0
-73 -610 22 0
74 609 -53 0
74 -609 -75 0
-74 -609 75 0
-74 609 53 0
75 -548 610 611 0
-75 548 0
-75 -611 0
-75 -610 0
76 608 -77 0
76 -608 -79 0
-76 -608 79 0
-76 608 77 0
77 -609 -45 0
77 609 -78 0
-77 609 78 0
-77 -609 45 0
78 -610 -34 0
78 610 -69 0
-78 610 69 0
-78 -610 34 0
79 609 -46 0
79 -609 -48 0
-79 -609 48 0
-79 609 46 0
80 -607 8 -85 0
80 607 8 -81 0
-80 -8 0
-80 -607 85 0
-80 607 81 0
81 -608 -51 0
81 608 -82 0
-81 608 82 0
-81 -608 51 0
82 -609 -73 0
82 609 -83 0
-82 609 83 0
-82 -609 73 0
83 -610 -63 0
83 610 -84 0
-83 610 84 0
-83 -610 63 0
84 -564 611 0
84 -563 -611 0
-84 564 611 0
-84 563 -611 0
85 608 -57 0
-85 -608 0
-85 57 0
86 87 -100 0
-86 -87 0
-86 100 0
87 607 8 -88 0
87 -607 8 -71 0
-87 -8 0
-87 607 88 0
-87 -607 71 0
-88 608 89 0
-88 -608 96 0
88 -608 -96 0
88 608 -89 0
-89 609 90 0
-89 -609 93 0
89 -609 -93 0
89 609 -90 0
-90 610 92 0
-90 -610 91 0
90 -610 -91 0
90 610 -92 0
91 -574 611 0
91 -573 -611 0
-91 574 611 0
-91 573 -611 0
92 -576 611 0
92 -575 -611 0
-92 576 611 0
-92 575 -611 0
93 610 -94 0
93 -610 -95 0
-93 -610 95 0
-93 610 94 0
94 -572 611 0
94 -571 -611 0
-94 572 611 0
-94 571 -611 0
95 -570 611 0
95 -569 -611 0
-95 570 611 0
-95 569 -611 0
96 -609 -83 0
96 609 -97 0
-96 609 97 0
-96 -609 83 0
97 610 -98 0
97 -610 -99 0
-97 -610 99 0
-97 610 98 0
98 -568 611 0
98 -567 -611 0
-98 568 611 0
-98 567 -611 0
99 -566 611 0
99 -565 -611 0
-99 566 611 0
-99 565 -611 0
100 101 -116 0
-100 -101 0
-100 116 0
101 607 8 -102 0
101 -607 8 -76 0
-101 -8 0
-101 607 102 0
-101 -607 76 0
-102 608 103 0
-102 -608 110 0
102 -608 -110 0
102 608 -103 0
-103 609 104 0
-103 -609 107 0
103 -609 -107 0
103 609 -104 0
-104 610 106 0
-104 -610 105 0
104 -610 -105 0
104 610 -106 0
105 -575 611 0
105 -574 -611 0
-105 575 611 0
-105 574 -611 0
106 -577 611 0
106 -576 -611 0
-106 577 611 0
-106 576 -611 0
107 610 -108 0
107 -610 -109 0
-107 -610 109 0
-107 610 108 0
108 -573 611 0
108 -572 -611 0
-108 573 611 0
-108 572 -611 0
109 -571 611 0
109 -570 -611 0
-109 571 611 0
-109 570 -611 0
110 609 -111 0
110 -609 -114 0
-110 -609 114 0
-110 609 111 0
111 610 -112 0
111 -610 -113 0
-111 -610 113 0
-111 610 112 0
112 -569 611 0
112 -568 -611 0
-112 569 611 0
-112 568 -611 0
113 -567 611 0
113 -566 -611 0
-113 567 611 0
-113 566 -611 0
114 -610 -68 0
114 610 -115 0
-114 610 115 0
-114 -610 68 0
115 -565 611 0
115 -564 -611 0
-115 565 611 0
-115 564 -611 0
116 -117 -136 0
116 117 -126 0
-116 117 126 0
-116 -117 136 0
117 607 8 -118 0
117 -607 8 -60 0
-117 -8 0
-117 607 118 0
-117 -607 60 0
-118 608 119 0
-118 -608 123 0
118 -608 -123 0
118 608 -119 0
-119 609 120 0
-119 -609 122 0
119 -609 -122 0
119 609 -120 0
-120 610 121 0
-120 -610 92 0
120 -610 -92 0
120 610 -121 0
121 -578 611 0
121 -577 -611 0
-121 578 611 0
-121 577 -611 0
122 610 -91 0
122 -610 -94 0
-122 -610 94 0
-122 610 91 0
123 609 -124 0
123 -609 -125 0
-123 -609 125 0
-123 609 124 0
124 610 -95 0
124 -610 -98 0
-124 -610 98 0
-124 610 95 0
125 -610 -84 0
125 610 -99 0
-125 610 99 0
-125 -610 84 0
-126 550 127 0
-126 549 -127 0
126 -550 127 0
126 -549 -127 0
127 607 8 -128 0
127 -607 8 -65 0
-127 -8 0
-127 607 128 0
-127 -607 65 0
-128 608 129 0
-128 -608 133 0
128 -608 -133 0
128 608 -129 0
-129 609 130 0
-129 -609 132 0
129 -609 -132 0
129 609 -130 0
-130 610 131 0
-130 -610 106 0
130 -610 -106 0
130 610 -131 0
131 -579 611 0
131 -578 -611 0
-131 579 611 0
-131 578 -611 0
132 610 -105 0
132 -610 -108 0
-132 -610 108 0
-132 610 105 0
133 609 -134 0
133 -609 -135 0
-133 -609 135 0
-133 609 134 0
134 610 -109 0
134 -610 -112 0
-134 -610 112 0
-134 610 109 0
135 610 -113 0
135 -610 -115 0
-135 -610 115 0
-135 610 113 0
136 -548 127 0
-136 548 0
-136 -127 0
-137 138 142 0
137 -138 0
137 -142 0
138 607 8 -139 0
138 -607 8 -31 0
-138 -8 0
-138 607 139 0
-138 -607 31 0
-139 608 140 0
-139 -608 141 0
139 -608 -141 0
139 608 -140 0
-140 -609 134 0
-140 609 132 0
140 609 -132 0
140 -609 -134 0
141 -609 -67 0
141 609 -135 0
-141 609 135 0
-141 -609 67 0
-142 143 149 156 161 0
142 -161 0
142 -156 0
142 -143 0
142 -149 0
143 -607 8 -148 0
143 607 8 -144 0
-143 -8 0
-143 -607 148 0
-143 607 144 0
-144 608 145 0
-144 -608 20 44 0
144 -608 -20 0
144 608 -145 0
144 -608 -44 0
-145 146 147 0
145 -146 0
145 -147 0
146 -609 -62 0
146 609 -125 0
-146 609 125 0
-146 -609 62 0
147 -609 -78 0
147 609 -114 0
-147 609 114 0
-147 -609 78 0
148 608 -28 0
148 608 -47 0
-148 -608 0
-148 28 47 0
149 607 8 -152 0
149 -607 8 -150 0
-149 -8 0
-149 -607 150 0
-149 607 152 0
150 27 -151 0
150 -608 27 0
150 27 -79 0
-150 -27 0
-150 608 79 151 0
-151 20 39 74 0
151 -20 0
151 -74 0
151 -39 0
152 153 -154 0
152 -32 -154 0
152 -72 -154 0
-152 154 0
-152 32 72 -153 0
153 -608 77 146 0
-153 608 0
-153 -146 0
-153 -77 0
-154 608 96 141 155 0
154 -155 0
154 -141 0
154 -608 0
154 -96 0
-155 -609 110 124 0
-155 609 110 122 0
155 -110 0
155 -609 -124 0
155 609 -122 0
156 607 8 -157 0
156 -607 8 -50 0
-156 -8 0
-156 607 157 0
-156 -607 50 0
-157 608 158 0
-157 -608 66 160 0
157 -608 -66 0
157 608 -158 0
157 -608 -160 0
-158 609 93 159 0
-158 -609 97 159 0
158 -159 0
158 609 -93 0
158 -609 -97 0
-159 123 133 0
159 -123 0
159 -133 0
-160 61 82 0
160 -61 0
160 -82 0
161 607 8 -162 0
161 -607 8 -43 0
-161 -8 0
-161 607 162 0
-161 -607 43 0
-162 -608 147 0
-162 608 163 0
162 -608 -147 0
162 608 -163 0
-163 -609 111 0
-163 609 107 0
163 609 -107 0
163 -609 -111 0
164 -138 165 -181 0
164 138 165 -166 0
-164 -165 0
-164 -138 181 0
-164 138 166 0
-165 5 142 0
165 -5 0
165 -142 0
-166 87 167 0
-166 -87 174 0
166 -87 -174 0
166 87 -167 0
-167 101 168 0
-167 -101 171 0
167 -101 -171 0
167 101 -168 0
-168 -117 169 0
-168 117 170 0
168 117 -170 0
168 -117 -169 0
-169 552 127 0
-169 553 -127 0
169 -553 -127 0
169 -552 127 0
-170 550 127 0
-170 551 -127 0
170 -551 -127 0
170 -550 127 0
171 -117 -173 0
171 117 -172 0
-171 117 172 0
-171 -117 173 0
-172 554 127 0
-172 555 -127 0
172 -555 -127 0
172 -554 127 0
-173 556 127 0
-173 557 -127 0
173 -557 -127 0
173 -556 127 0
174 101 -175 0
174 -101 -178 0
-174 -101 178 0
-174 101 175 0
175 -117 -177 0
175 117 -176 0
-175 117 176 0
-175 -117 177 0
-176 558 127 0
-176 559 -127 0
176 -559 -127 0
176 -558 127 0
-177 560 127 0
-177 561 -127 0
177 -561 -127 0
177 -560 127 0
178 -117 -180 0
178 117 -179 0
-178 117 179 0
-178 -117 180 0
-179 562 127 0
-179 563 -127 0
179 -563 -127 0
179 -562 127 0
-180 564 127 0
-180 565 -127 0
180 -565 -127 0
180 -564 127 0
181 87 -182 0
181 -87 -189 0
-181 -87 189 0
-181 87 182 0
182 101 -183 0
182 -101 -186 0
-182 -101 186 0
-182 101 183 0
183 -117 -185 0
183 117 -184 0
-183 117 184 0
-183 -117 185 0
-184 566 127 0
-184 567 -127 0
184 -567 -127 0
184 -566 127 0
-185 568 127 0
-185 569 -127 0
185 -569 -127 0
185 -568 127 0
186 -117 -188 0
186 117 -187 0
-186 117 187 0
-186 -117 188 0
-187 570 127 0
-187 571 -127 0
187 -571 -127 0
187 -570 127 0
-188 572 127 0
-188 573 -127 0
188 -573 -127 0
188 -572 127 0
189 101 -190 0
189 -101 -193 0
-189 -101 193 0
-189 101 190 0
190 -117 -192 0
190 117 -191 0
-190 117 191 0
-190 -117 192 0
-191 574 127 0
-191 575 -127 0
191 -575 -127 0
191 -574 127 0
-192 576 127 0
-192 577 -127 0
192 -577 -127 0
192 -576 127 0
193 117 -194 0
-193 -117 0
-193 194 0
-194 578 127 0
-194 579 -127 0
194 -579 -127 0
194 -578 127 0
195 -550 196 197 0
-195 550 0
-195 -196 0
-195 -197 0
196 7 -85 0
-196 -7 0
-196 85 0
-197 198 199 0
197 -198 0
197 -199 0
198 608 7 -74 0
-198 74 0
-198 -7 0
-198 -608 0
199 608 7 -79 0
-199 79 0
-199 -7 0
-199 -608 0
200 198 -225 0
200 198 -201 -224 0
-200 -198 0
-200 201 225 0
-200 224 225 0
201 202 -204 -223 0
201 202 -204 220 0
-201 -202 0
-201 204 0
-201 -220 223 0
-202 142 203 0
202 -142 0
202 -203 0
-203 5 199 0
203 -5 0
203 -199 0
-204 138 205 0
-204 -138 213 0
204 -138 -213 0
204 138 -205 0
-205 87 206 0
-205 -87 210 0
205 -87 -210 0
205 87 -206 0
-206 101 207 0
-206 -101 209 0
206 -101 -209 0
206 101 -207 0
-207 -117 170 0
-207 117 208 136 0
207 117 -208 0
207 -117 -170 0
207 117 -136 0
208 -549 -127 0
-208 549 0
-208 127 0
209 -117 -172 0
209 117 -169 0
-209 117 169 0
-209 -117 172 0
210 101 -211 0
210 -101 -212 0
-210 -101 212 0
-210 101 211 0
211 -117 -176 0
211 117 -173 0
-211 117 173 0
-211 -117 176 0
212 -117 -179 0
212 117 -177 0
-212 117 177 0
-212 -117 179 0
213 87 -214 0
213 -87 -217 0
-213 -87 217 0
-213 87 214 0
214 101 -215 0
214 -101 -216 0
-214 -101 216 0
-214 101 215 0
215 -117 -184 0
215 117 -180 0
-215 117 180 0
-215 -117 184 0
216 -117 -187 0
216 117 -185 0
-216 117 185 0
-216 -117 187 0
217 101 -218 0
217 -101 -219 0
-217 -101 219 0
-217 101 218 0
218 -117 -191 0
218 117 -188 0
-218 117 188 0
-218 -117 191 0
219 -117 -194 0
219 117 -192 0
-219 117 192 0
-219 -117 194 0
220 87 -221 0
-220 -87 0
-220 221 0
221 101 -222 0
-221 -101 0
-221 222 0
222 117 -136 0
-222 -117 0
-222 136 0
-223 137 203 0
223 -137 0
223 -203 0
224 -548 196 0
-224 548 0
-224 -196 0
225 -549 196 226 -258 0
225 -549 196 -226 258 0
-225 -196 0
-225 226 258 0
-225 549 0
-225 -226 -258 0
226 -138 202 -243 0
226 138 202 -227 0
-226 -202 0
-226 -138 243 0
-226 138 227 0
-227 87 228 0
-227 -87 236 0
227 -87 -236 0
227 87 -228 0
-228 101 229 0
-228 -101 233 0
228 -101 -233 0
228 101 -229 0
-229 -117 232 0
-229 117 230 231 0
229 117 -230 0
229 -117 -232 0
229 117 -231 0
230 -550 -127 0
-230 550 0
-230 127 0
231 -549 127 0
-231 549 0
-231 -127 0
-232 551 127 0
-232 552 -127 0
232 -552 -127 0
232 -551 127 0
233 -117 -235 0
233 117 -234 0
-233 117 234 0
-233 -117 235 0
-234 553 127 0
-234 554 -127 0
234 -554 -127 0
234 -553 127 0
-235 555 127 0
-235 556 -127 0
235 -556 -127 0
235 -555 127 0
236 101 -237 0
236 -101 -240 0
-236 -101 240 0
-236 101 237 0
237 -117 -239 0
237 117 -238 0
-237 117 238 0
-237 -117 239 0
-238 557 127 0
-238 558 -127 0
238 -558 -127 0
238 -557 127 0
-239 559 127 0
-239 560 -127 0
239 -560 -127 0
239 -559 127 0
240 -117 -242 0
240 117 -241 0
-240 117 241 0
-240 -117 242 0
-241 561 127 0
-241 562 -127 0
241 -562 -127 0
241 -561 127 0
-242 563 127 0
-242 564 -127 0
242 -564 -127 0
242 -563 127 0
243 87 -244 0
243 -87 -251 0
-243 -87 251 0
-243 87 244 0
244 101 -245 0
244 -101 -248 0
-244 -101 248 0
-244 101 245 0
245 -117 -247 0
245 117 -246 0
-245 117 246 0
-245 -117 247 0
-246 565 127 0
-246 566 -127 0
246 -566 -127 0
246 -565 127 0
-247 567 127 0
-247 568 -127 0
247 -568 -127 0
247 -567 127 0
248 -117 -250 0
248 117 -249 0
-248 117 249 0
-248 -117 250 0
-249 569 127 0
-249 570 -127 0
249 -570 -127 0
249 -569 127 0
-250 571 127 0
-250 572 -127 0
250 -572 -127 0
250 -571 127 0
251 101 -252 0
251 -101 -255 0
-251 -101 255 0
-251 101 252 0
252 -117 -254 0
252 117 -253 0
-252 117 253 0
-252 -117 254 0
-253 573 127 0
-253 574 -127 0
253 -574 -127 0
253 -573 127 0
-254 575 127 0
-254 576 -127 0
254 -576 -127 0
254 -575 127 0
255 -117 -257 0
255 117 -256 0
-255 117 256 0
-255 -117 257 0
-256 577 127 0
-256 578 -127 0
256 -578 -127 0
256 -577 127 0
257 -579 127 0
-257 579 0
-257 -127 0
258 223 -259 0
-258 -223 0
-258 259 0
259 87 -260 0
-259 -87 0
-259 260 0
260 101 -261 0
-260 -101 0
-260 261 0
261 117 -262 0
-261 -117 0
-261 262 0
-262 549 127 0
-262 548 -127 0
262 -549 127 0
262 -548 -127 0
263 7 -148 0
263 608 7 -39 0
-263 -7 0
-263 -608 148 0
-263 39 148 0
-264 265 366 373 391 0
264 -391 0
264 -373 0
264 -265 0
264 -366 0
-265 266 322 337 343 0
265 -343 0
265 -337 0
265 -266 0
265 -322 0
-266 267 295 313 0
266 -267 0
266 -313 0
266 -295 0
267 -566 196 268 -276 0
267 -566 196 -268 276 0
-267 -196 0
-267 268 276 0
-267 566 0
-267 -268 -276 0
268 -181 269 0
-268 181 0
-268 -269 0
-269 270 271 272 274 0
269 -274 0
269 -270 0
269 -272 0
269 -271 0
-270 138 149 0
270 -138 0
270 -149 0
-271 6 161 0
271 -6 0
271 -161 0
-272 49 273 0
272 -49 0
272 -273 0
-273 197 263 0
273 -197 0
273 -263 0
-274 59 70 143 275 0
274 -275 0
274 -143 0
274 -59 0
274 -70 0
-275 80 156 0
275 -80 0
275 -156 0
276 138 277 -280 0
276 -86 -138 277 0
-276 -277 0
-276 86 -138 0
-276 138 280 0
-277 278 279 0
277 -278 0
277 -279 0
-278 6 272 0
278 -6 0
278 -272 0
-279 58 142 0
279 -58 0
279 -142 0
-280 87 288 0
-280 -87 281 0
280 -87 -281 0
280 87 -288 0
281 101 -282 0
281 -101 -285 0
-281 -101 285 0
-281 101 282 0
282 -117 -284 0
282 117 -283 0
-282 117 283 0
-282 -117 284 0
-283 558 127 0
-283 557 -127 0
283 -558 127 0
283 -557 -127 0
-284 556 127 0
-284 555 -127 0
284 -556 127 0
284 -555 -127 0
285 -117 -287 0
285 117 -286 0
-285 117 286 0
-285 -117 287 0
-286 554 127 0
-286 553 -127 0
286 -554 127 0
286 -553 -127 0
-287 552 127 0
-287 551 -127 0
287 -552 127 0
287 -551 -127 0
288 101 -289 0
288 -101 -292 0
-288 -101 292 0
-288 101 289 0
289 -117 -291 0
289 117 -290 0
-289 117 290 0
-289 -117 291 0
-290 566 127 0
-290 565 -127 0
290 -566 127 0
290 -565 -127 0
-291 564 127 0
-291 563 -127 0
291 -564 127 0
291 -563 -127 0
292 -117 -294 0
292 117 -293 0
-292 117 293 0
-292 -117 294 0
-293 562 127 0
-293 561 -127 0
293 -562 127 0
293 -561 -127 0
-294 560 127 0
-294 559 -127 0
294 -560 127 0
294 -559 -127 0
295 -565 196 296 -297 0
295 -565 196 -296 297 0
-295 -196 0
-295 296 297 0
-295 565 0
-295 -296 -297 0
296 -243 269 0
-296 243 0
-296 -269 0
297 138 277 -298 0
297 -138 -259 277 0
-297 -277 0
-297 138 298 0
-297 -138 259 0
-298 87 306 0
-298 -87 299 0
298 -87 -299 0
298 87 -306 0
299 101 -300 0
299 -101 -303 0
-299 -101 303 0
-299 101 300 0
300 -117 -302 0
300 117 -301 0
-300 117 301 0
-300 -117 302 0
-301 557 127 0
-301 556 -127 0
301 -557 127 0
301 -556 -127 0
-302 555 127 0
-302 554 -127 0
302 -555 127 0
302 -554 -127 0
303 -117 -305 0
303 117 -304 0
-303 117 304 0
-303 -117 305 0
-304 553 127 0
-304 552 -127 0
304 -553 127 0
304 -552 -127 0
-305 551 127 0
-305 550 -127 0
305 -551 127 0
305 -550 -127 0
306 101 -307 0
306 -101 -310 0
-306 -101 310 0
-306 101 307 0
307 -117 -309 0
307 117 -308 0
-307 117 308 0
-307 -117 309 0
-308 565 127 0
-308 564 -127 0
308 -565 127 0
308 -564 -127 0
-309 563 127 0
-309 562 -127 0
309 -563 127 0
309 -562 -127 0
310 -117 -312 0
310 117 -311 0
-310 117 311 0
-310 -117 312 0
-311 561 127 0
-311 560 -127 0
311 -561 127 0
311 -560 -127 0
-312 559 127 0
-312 558 -127 0
312 -559 127 0
312 -558 -127 0
313 -556 196 314 -317 0
313 -556 196 -314 317 0
-313 -196 0
-313 314 317 0
-313 556 0
-313 -314 -317 0
314 -138 277 -316 0
314 138 277 -315 0
-314 -277 0
-314 -138 316 0
-314 138 315 0
-315 -87 214 0
-315 87 210 0
315 87 -210 0
315 -87 -214 0
316 87 -217 0
-316 -87 0
-316 217 0
317 269 -318 0
-317 -269 0
-317 318 0
318 -87 -221 0
318 87 -319 0
-318 87 319 0
-318 -87 221 0
319 101 -320 0
319 -101 -321 0
-319 -101 321 0
-319 101 320 0
320 -117 -286 0
320 117 -284 0
-320 117 284 0
-320 -117 286 0
321 117 -287 0
321 -117 -126 0
-321 -117 126 0
-321 117 287 0
322 -568 196 323 -327 0
322 -568 196 -323 327 0
-322 -196 0
-322 323 327 0
-322 568 0
-322 -323 -327 0
323 269 -324 0
-323 -269 0
-323 324 0
324 87 -325 0
324 -87 -326 0
-324 -87 326 0
-324 87 325 0
325 101 -216 0
325 -101 -218 0
-325 -101 218 0
-325 101 216 0
326 101 -219 0
-326 -101 0
-326 219 0
327 -138 277 -335 0
327 138 277 -328 0
-327 -277 0
-327 -138 335 0
-327 138 328 0
-328 87 331 0
-328 -87 329 0
328 -87 -329 0
328 87 -331 0
329 -101 -320 0
329 101 -330 0
-329 101 330 0
-329 -101 320 0
330 117 -294 0
330 -117 -283 0
-330 -117 283 0
-330 117 294 0
331 101 -332 0
331 -101 -334 0
-331 -101 334 0
-331 101 332 0
332 117 -333 0
332 -117 -290 0
-332 -117 290 0
-332 117 333 0
-333 568 127 0
-333 567 -127 0
333 -568 127 0
333 -567 -127 0
334 -117 -293 0
334 117 -291 0
-334 117 291 0
-334 -117 293 0
335 87 -336 0
-335 -87 0
-335 336 0
336 -101 -222 0
336 101 -321 0
-336 101 321 0
-336 -101 222 0
337 -557 196 338 -341 0
337 -557 196 -338 341 0
-337 -196 0
-337 338 341 0
-337 557 0
-337 -338 -341 0
338 -138 277 -340 0
338 138 277 -339 0
-338 -277 0
-338 -138 340 0
-338 138 339 0
-339 -87 244 0
-339 87 236 0
339 87 -236 0
339 -87 -244 0
340 87 -251 0
-340 -87 0
-340 251 0
341 269 -342 0
-341 -269 0
-341 342 0
342 -87 -260 0
342 87 -299 0
-342 87 299 0
-342 -87 260 0
343 -571 196 344 -351 0
343 -571 196 -344 351 0
-343 -196 0
-343 344 351 0
-343 571 0
-343 -344 -351 0
344 269 -345 0
-344 -269 0
-344 345 0
345 87 -346 0
345 -87 -349 0
-345 -87 349 0
-345 87 346 0
346 101 -347 0
346 -101 -348 0
-346 -101 348 0
-346 101 347 0
347 -117 -253 0
347 117 -250 0
-347 117 250 0
-347 -117 253 0
348 -117 -256 0
348 117 -254 0
-348 117 254 0
-348 -117 256 0
349 101 -350 0
-349 -101 0
-349 350 0
350 117 -257 0
-350 -117 0
-350 257 0
351 -138 277 -362 0
351 138 277 -352 0
-351 -277 0
-351 -138 362 0
-351 138 352 0
-352 87 356 0
-352 -87 353 0
352 -87 -353 0
352 87 -356 0
353 101 -354 0
353 -101 -355 0
-353 -101 355 0
-353 101 354 0
354 -117 -311 0
354 117 -309 0
-354 117 309 0
-354 -117 311 0
355 117 -312 0
355 -117 -301 0
-355 -117 301 0
-355 117 312 0
356 101 -357 0
356 -101 -360 0
-356 -101 360 0
-356 101 357 0
357 -117 -359 0
357 117 -358 0
-357 117 358 0
-357 -117 359 0
-358 571 127 0
-358 570 -127 0
358 -571 127 0
358 -570 -127 0
-359 569 127 0
-359 568 -127 0
359 -569 127 0
359 -568 -127 0
360 117 -361 0
360 -117 -308 0
-360 -117 308 0
-360 117 361 0
-361 567 127 0
-361 566 -127 0
361 -567 127 0
361 -566 -127 0
362 87 -363 0
-362 -87 0
-362 363 0
363 101 -364 0
363 -101 -365 0
-363 -101 365 0
-363 101 364 0
364 -117 -304 0
364 117 -302 0
-364 117 302 0
-364 -117 304 0
365 117 -305 0
365 -117 -262 0
-365 -117 262 0
-365 117 305 0
366 -552 196 367 -372 0
366 -552 196 -367 372 0
-366 -196 0
-366 367 372 0
-366 552 0
-366 -367 -372 0
367 -138 279 371 0
367 279 -368 371 0
-367 -371 0
-367 -279 0
-367 138 368 0
368 87 -369 0
368 -87 -370 0
-368 -87 370 0
-368 87 369 0
369 101 -209 0
369 -101 -211 0
-369 -101 211 0
-369 101 209 0
370 101 -212 0
370 -101 -215 0
-370 -101 215 0
-370 101 212 0
-371 138 278 0
-371 278 -324 0
371 -278 0
371 -138 324 0
372 269 -335 0
-372 -269 0
-372 335 0
373 374 -377 -389 390 0
373 -374 377 -389 390 0
-373 -390 0
-373 374 377 0
-373 389 0
-373 -374 -377 0
374 270 -375 0
-374 -270 0
-374 375 0
375 87 -376 0
-375 -87 0
-375 376 0
376 101 -365 0
-376 -101 0
-376 365 0
377 -138 149 -385 0
377 138 149 -378 0
-377 -149 0
-377 -138 385 0
-377 138 378 0
-378 87 379 0
-378 -87 382 0
378 -87 -382 0
378 87 -379 0
-379 101 380 0
-379 -101 381 0
379 -101 -381 0
379 101 -380 0
-380 117 232 0
-380 -117 234 0
380 -117 -234 0
380 117 -232 0
381 -117 -238 0
381 117 -235 0
-381 117 235 0
-381 -117 238 0
382 101 -383 0
382 -101 -384 0
-382 -101 384 0
-382 101 383 0
383 -117 -241 0
383 117 -239 0
-383 117 239 0
-383 -117 241 0
384 -117 -246 0
384 117 -242 0
-384 117 242 0
-384 -117 246 0
385 87 -386 0
385 -87 -388 0
-385 -87 388 0
-385 87 386 0
386 -101 -347 0
386 101 -387 0
-386 101 387 0
-386 -101 347 0
387 -117 -249 0
387 117 -247 0
-387 117 247 0
-387 -117 249 0
388 101 -348 0
388 -101 -350 0
-388 -101 350 0
-388 101 348 0
389 -551 271 272 0
-389 551 0
-389 -271 0
-389 -272 0
-390 196 274 0
390 -196 0
390 -274 0
-391 392 403 409 421 0
391 -421 0
391 -409 0
391 -392 0
391 -403 0
392 -561 196 393 -399 0
392 -561 196 -393 399 0
-392 -196 0
-392 393 399 0
-392 561 0
-392 -393 -399 0
393 -138 277 -397 0
393 138 277 -394 0
-393 -277 0
-393 -138 397 0
-393 138 394 0
-394 87 396 0
-394 -87 395 0
394 -87 -395 0
394 87 -396 0
395 101 -248 0
395 -101 -252 0
-395 -101 252 0
-395 101 248 0
396 101 -240 0
396 -101 -245 0
-396 -101 245 0
-396 101 240 0
397 87 -398 0
-397 -87 0
-397 398 0
398 101 -255 0
-398 -101 0
-398 255 0
399 269 -400 0
-399 -269 0
-399 400 0
400 87 -401 0
400 -87 -402 0
-400 -87 402 0
-400 87 401 0
401 -101 -300 0
401 101 -310 0
-401 101 310 0
-401 -101 300 0
402 -101 -261 0
402 101 -303 0
-402 101 303 0
-402 -101 261 0
403 -560 196 404 -407 0
403 -560 196 -404 407 0
-403 -196 0
-403 404 407 0
-403 560 0
-403 -404 -407 0
404 -138 277 -406 0
404 138 277 -405 0
-404 -277 0
-404 -138 406 0
-404 138 405 0
-405 87 370 0
-405 -87 325 0
405 -87 -325 0
405 87 -370 0
406 87 -326 0
-406 -87 0
-406 326 0
407 269 -408 0
-407 -269 0
-407 408 0
408 87 -329 0
408 -87 -336 0
-408 -87 336 0
-408 87 329 0
409 -577 196 410 -411 0
409 -577 196 -410 411 0
-409 -196 0
-409 410 411 0
-409 577 0
-409 -410 -411 0
410 269 -397 0
-410 -269 0
-410 397 0
411 138 277 -412 0
411 -138 277 -400 0
-411 -277 0
-411 138 412 0
-411 -138 400 0
-412 87 413 0
-412 -87 419 0
412 -87 -419 0
412 87 -413 0
-413 101 414 0
-413 -101 417 0
413 -101 -417 0
413 101 -414 0
-414 -117 415 0
-414 117 416 0
414 117 -416 0
414 -117 -415 0
-415 575 127 0
-415 574 -127 0
415 -575 127 0
415 -574 -127 0
-416 577 127 0
-416 576 -127 0
416 -577 127 0
416 -576 -127 0
417 117 -418 0
417 -117 -358 0
-417 -117 358 0
-417 117 418 0
-418 573 127 0
-418 572 -127 0
418 -573 127 0
418 -572 -127 0
419 -101 -307 0
419 101 -420 0
-419 101 420 0
-419 -101 307 0
420 -117 -361 0
420 117 -359 0
-420 117 359 0
-420 -117 361 0
421 -576 196 422 -423 0
421 -576 196 -422 423 0
-421 -196 0
-421 422 423 0
-421 576 0
-421 -422 -423 0
422 269 -406 0
-422 -269 0
-422 406 0
423 138 277 -424 0
423 -138 277 -408 0
-423 -277 0
-423 138 424 0
-423 -138 408 0
-424 -87 331 0
-424 87 425 0
424 -87 -331 0
424 87 -425 0
-425 101 426 0
-425 -101 429 0
425 -101 -429 0
425 101 -426 0
-426 -117 427 0
-426 117 428 0
426 117 -428 0
426 -117 -427 0
-427 574 127 0
-427 573 -127 0
427 -574 127 0
427 -573 -127 0
-428 576 127 0
-428 575 -127 0
428 -576 127 0
428 -575 -127 0
429 -117 -431 0
429 117 -430 0
-429 117 430 0
-429 -117 431 0
-430 572 127 0
-430 571 -127 0
430 -572 127 0
430 -571 -127 0
-431 570 127 0
-431 569 -127 0
431 -570 127 0
431 -569 -127 0
-432 433 482 522 535 0
432 -535 0
432 -433 0
432 -522 0
432 -482 0
-433 434 459 466 471 0
433 -471 0
433 -466 0
433 -434 0
433 -459 0
-434 435 445 452 0
434 -435 0
434 -452 0
434 -445 0
435 -553 196 436 -441 0
435 -553 196 -436 441 0
-435 -196 0
-435 436 441 0
-435 553 0
-435 -436 -441 0
436 165 273 -437 0
-436 -165 0
-436 -273 0
-436 437 0
-437 138 438 0
-437 -138 440 0
437 -138 -440 0
437 138 -438 0
-438 -87 396 0
-438 87 439 0
438 -87 -396 0
438 87 -439 0
-439 -101 237 0
-439 101 233 0
439 101 -233 0
439 -101 -237 0
440 87 -395 0
440 -87 -398 0
-440 -87 398 0
-440 87 395 0
441 70 273 -442 444 0
-441 -70 0
-441 -444 0
-441 442 0
-441 -273 0
442 49 143 271 -443 0
-442 -49 0
-442 443 0
-442 -271 0
-442 -143 0
443 87 -402 0
-443 -87 0
-443 402 0
-444 59 270 275 0
444 -275 0
444 -270 0
444 -59 0
445 -559 196 446 -449 0
445 -559 196 -446 449 0
-445 -196 0
-445 446 449 0
-445 559 0
-445 -446 -449 0
446 -138 277 -448 0
446 138 277 -447 0
-446 -277 0
-446 -138 448 0
-446 138 447 0
-447 -87 386 0
-447 87 382 0
447 87 -382 0
447 -87 -386 0
448 87 -388 0
-448 -87 0
-448 388 0
449 269 -450 0
-449 -269 0
-449 450 0
450 -87 -376 0
450 87 -451 0
-450 87 451 0
-450 -87 376 0
451 101 -355 0
451 -101 -364 0
-451 -101 364 0
-451 101 355 0
452 -563 196 453 -457 0
452 -563 196 -453 457 0
-452 -196 0
-452 453 457 0
-452 563 0
-452 -453 -457 0
453 -138 277 -456 0
453 138 277 -454 0
-453 -277 0
-453 -138 456 0
-453 138 454 0
-454 87 455 0
-454 -87 346 0
454 -87 -346 0
454 87 -455 0
455 101 -384 0
455 -101 -387 0
-455 -101 387 0
-455 101 384 0
456 87 -349 0
-456 -87 0
-456 349 0
457 269 -458 0
-457 -269 0
-457 458 0
458 87 -353 0
458 -87 -363 0
-458 -87 363 0
-458 87 353 0
459 -575 196 460 -461 0
459 -575 196 -460 461 0
-459 -196 0
-459 460 461 0
-459 575 0
-459 -460 -461 0
460 269 -448 0
-460 -269 0
-460 448 0
461 138 277 -462 0
461 -138 277 -450 0
-461 -277 0
-461 138 462 0
-461 -138 450 0
-462 87 463 0
-462 -87 465 0
462 -87 -465 0
462 87 -463 0
-463 101 464 0
-463 -101 357 0
463 -101 -357 0
463 101 -464 0
464 -117 -418 0
464 117 -415 0
-464 117 415 0
-464 -117 418 0
465 -101 -354 0
465 101 -360 0
-465 101 360 0
-465 -101 354 0
466 -555 196 467 -470 0
466 -555 196 -467 470 0
-466 -196 0
-466 467 470 0
-466 555 0
-466 -467 -470 0
467 138 277 -468 0
467 -138 277 -345 0
-467 -277 0
-467 138 468 0
-467 -138 345 0
-468 -87 455 0
-468 87 469 0
468 -87 -455 0
468 87 -469 0
-469 -101 383 0
-469 101 381 0
469 101 -381 0
469 -101 -383 0
470 269 -362 0
-470 -269 0
-470 362 0
471 -554 196 472 -479 0
471 -554 196 -472 479 0
-471 -196 0
-471 472 479 0
-471 554 0
-471 -472 -479 0
472 -138 277 -476 0
472 138 277 -473 0
-472 -277 0
-472 -138 476 0
-472 138 473 0
-473 87 474 0
-473 -87 475 0
473 -87 -475 0
473 87 -474 0
-474 -101 175 0
-474 101 171 0
474 101 -171 0
474 -101 -175 0
475 101 -178 0
475 -101 -183 0
-475 -101 183 0
-475 101 178 0
476 87 -477 0
476 -87 -478 0
-476 -87 478 0
-476 87 477 0
477 101 -186 0
477 -101 -190 0
-477 -101 190 0
-477 101 186 0
478 101 -193 0
-478 -101 0
-478 193 0
479 269 -480 0
-479 -269 0
-479 480 0
480 87 -481 0
-480 -87 0
-480 481 0
481 -101 -116 0
481 101 -285 0
-481 101 285 0
-481 -101 116 0
-482 483 497 509 515 0
482 -497 0
482 -515 0
482 -483 0
482 -509 0
483 -578 196 484 -486 0
483 -578 196 -484 486 0
-483 -196 0
-483 484 486 0
-483 578 0
-483 -484 -486 0
484 269 -485 0
-484 -269 0
-484 485 0
485 87 -478 0
-485 -87 0
-485 478 0
486 -138 277 -495 0
486 138 277 -487 0
-486 -277 0
-486 -138 495 0
-486 138 487 0
-487 87 488 0
-487 -87 493 0
487 -87 -493 0
487 87 -488 0
-488 101 489 0
-488 -101 492 0
488 -101 -492 0
488 101 -489 0
-489 -117 428 0
-489 117 490 491 0
489 117 -490 0
489 -117 -428 0
489 117 -491 0
490 -577 -127 0
-490 577 0
-490 127 0
491 -578 127 0
-491 578 0
-491 -127 0
492 -117 -430 0
492 117 -427 0
-492 117 427 0
-492 -117 430 0
493 -101 -289 0
493 101 -494 0
-493 101 494 0
-493 -101 289 0
494 117 -431 0
494 -117 -333 0
-494 -117 333 0
-494 117 431 0
495 -87 -481 0
495 87 -496 0
-495 87 496 0
-495 -87 481 0
496 -101 -282 0
496 101 -292 0
-496 101 292 0
-496 -101 282 0
-497 -196 498 0
-497 498 503 0
-497 579 498 0
497 -498 0
497 -579 196 -503 0
498 -573 196 499 -500 0
498 -573 196 -499 500 0
-498 -196 0
-498 499 500 0
-498 573 0
-498 -499 -500 0
499 269 -340 0
-499 -269 0
-499 340 0
500 138 277 -501 0
500 -138 277 -342 0
-500 -277 0
-500 138 501 0
-500 -138 342 0
-501 -87 306 0
-501 87 502 0
501 -87 -306 0
501 87 -502 0
-502 -101 420 0
-502 101 417 0
502 101 -417 0
502 -101 -420 0
503 -269 277 -504 0
503 277 456 -504 0
-503 -277 0
-503 504 0
-503 269 -456 0
-504 -138 458 0
-504 138 505 0
504 -138 -458 0
504 138 -505 0
-505 -87 356 0
-505 87 506 0
505 -87 -356 0
505 87 -506 0
-506 -101 464 0
-506 101 507 0
506 -101 -464 0
506 101 -507 0
-507 -117 416 0
-507 117 508 257 0
507 117 -508 0
507 -117 -416 0
507 117 -257 0
508 -578 -127 0
-508 578 0
-508 127 0
509 -572 196 510 -511 0
509 -572 196 -510 511 0
-509 -196 0
-509 510 511 0
-509 572 0
-509 -510 -511 0
510 269 -316 0
-510 -269 0
-510 316 0
511 138 277 -512 0
511 -138 277 -318 0
-511 -277 0
-511 138 512 0
-511 -138 318 0
-512 87 513 0
-512 -87 514 0
512 -87 -514 0
512 87 -513 0
-513 101 429 0
-513 -101 332 0
513 -101 -332 0
513 101 -429 0
514 -101 -330 0
514 101 -334 0
-514 101 334 0
-514 -101 330 0
515 -574 196 516 -518 0
515 -574 196 -516 518 0
-515 -196 0
-515 516 518 0
-515 574 0
-515 -516 -518 0
516 269 -517 0
-516 -269 0
-516 517 0
517 87 -189 0
-517 -87 0
-517 189 0
518 -138 277 -521 0
518 138 277 -519 0
-518 -277 0
-518 -138 521 0
-518 138 519 0
-519 -87 288 0
-519 87 520 0
519 -87 -288 0
519 87 -520 0
-520 -101 494 0
-520 101 492 0
520 101 -492 0
520 -101 -494 0
521 -87 -100 0
521 87 -281 0
-521 87 281 0
-521 -87 100 0
-522 523 527 531 0
522 -523 0
522 -531 0
522 -527 0
523 -570 196 524 -525 0
523 -570 196 -524 525 0
-523 -196 0
-523 524 525 0
-523 570 0
-523 -524 -525 0
524 269 -476 0
-524 -269 0
-524 476 0
525 138 277 -526 0
525 -138 277 -480 0
-525 -277 0
-525 138 526 0
-525 -138 480 0
-526 -87 496 0
-526 87 493 0
526 87 -493 0
526 -87 -496 0
527 -569 196 528 -529 0
527 -569 196 -528 529 0
-527 -196 0
-527 528 529 0
-527 569 0
-527 -528 -529 0
528 269 -440 0
-528 -269 0
-528 440 0
529 138 277 -530 0
529 -138 277 -443 0
-529 -277 0
-529 138 530 0
-529 -138 443 0
-530 87 419 0
-530 -87 401 0
530 -87 -401 0
530 87 -419 0
531 -558 196 532 -534 0
531 -558 196 -532 534 0
-531 -196 0
-531 532 534 0
-531 558 0
-531 -532 -534 0
532 138 277 -533 0
532 -138 277 -517 0
-532 -277 0
-532 138 533 0
-532 -138 517 0
-533 -87 182 0
-533 87 174 0
533 87 -174 0
533 -87 -182 0
534 269 -521 0
-534 -269 0
-534 521 0
-535 536 540 544 0
535 -536 0
535 -544 0
535 -540 0
536 -567 196 537 -538 0
536 -567 196 -537 538 0
-536 -196 0
-536 537 538 0
-536 567 0
-536 -537 -538 0
537 269 -385 0
-537 -269 0
-537 385 0
538 138 277 -539 0
538 -138 277 -375 0
-538 -277 0
-538 138 539 0
-538 -138 375 0
-539 87 465 0
-539 -87 451 0
539 -87 -451 0
539 87 -465 0
540 -562 196 541 -543 0
540 -562 196 -541 543 0
-540 -196 0
-540 541 543 0
-540 562 0
-540 -541 -543 0
541 138 277 -542 0
541 -138 277 -485 0
-541 -277 0
-541 138 542 0
-541 -138 485 0
-542 -87 477 0
-542 87 475 0
542 87 -475 0
542 -87 -477 0
543 269 -495 0
-543 -269 0
-543 495 0
544 -564 196 545 -546 0
544 -564 196 -545 546 0
-544 -196 0
-544 545 546 0
-544 564 0
-544 -545 -546 0
545 -213 269 0
-545 213 0
-545 -269 0
546 138 277 -547 0
546 -138 -220 277 0
-546 -277 0
-546 138 547 0
-546 -138 220 0
-547 87 514 0
-547 -87 319 0
547 -87 -319 0
547 87 -514 0
-612 0
2 0

